src/RACER/swarm_exploration/utils/lkh_mtsp_solver/resource/amtsp3_3.tour
NAME : pairopt.-195412.tour
COMMENT : Length = -195412
COMMENT : Found by LKH-3 [Keld Helsgaun] Fri Mar 28 08:33:52 2025
TYPE : TOUR
DIMENSION : 7
TOUR_SECTION
1
3
4
7
2
6
5
-1
EOF
